(set-logic QF_S)
(declare-fun var0 () String)
(assert (str.in.re var0 (re.++ (re.+ (re.* (str.to.re "000"))) (re.++ (re.* (re.+ (str.to.re "11"))) (re.++ (re.union (re.* (str.to.re "22")) (re.* (str.to.re "333"))) (re.++ (re.+ (re.+ (str.to.re "444"))) (re.++ (re.+ (re.* (str.to.re "555"))) (re.++ (re.union (re.union (str.to.re "66") (str.to.re "77")) (re.union (str.to.re "88") (str.to.re "9"))) (re.++ (re.* (re.union (str.to.re "a") (str.to.re "bbb"))) (re.++ (re.+ (re.+ (str.to.re "ccc"))) (re.++ (re.+ (re.* (str.to.re "ddd"))) (re.++ (re.* (re.union (str.to.re "ee") (str.to.re "fff"))) (re.++ (re.union (re.* (str.to.re "ggg")) (re.* (str.to.re "hhh"))) (re.++ (re.+ (re.union (str.to.re "iii") (str.to.re "jj"))) (re.++ (re.+ (re.* (str.to.re "kk"))) (re.++ (re.+ (re.+ (str.to.re "ll"))) (re.++ (re.union (re.+ (str.to.re "mmm")) (re.+ (str.to.re "nnn"))) (re.++ (re.+ (re.+ (str.to.re "ooo"))) (re.++ (re.* (re.union (str.to.re "ppp") (str.to.re "qqq"))) (re.++ (re.+ (re.* (str.to.re "rr"))) (re.++ (re.* (re.* (str.to.re "s"))) (re.++ (re.* (re.* (str.to.re "ttt"))) (re.++ (re.+ (re.* (str.to.re "u"))) (re.++ (re.* (re.* (str.to.re "v"))) (re.++ (re.* (re.union (str.to.re "w") (str.to.re "xx"))) (re.++ (re.+ (re.+ (str.to.re "y"))) (re.++ (re.* (re.+ (str.to.re "zz"))) (re.++ (re.+ (re.+ (str.to.re "A"))) (re.++ (re.union (re.union (str.to.re "BB") (str.to.re "CCC")) (re.union (str.to.re "D") (str.to.re "EEE"))) (re.++ (re.union (re.+ (str.to.re "F")) (re.+ (str.to.re "G"))) (re.++ (re.+ (re.* (str.to.re "H"))) (re.++ (re.+ (re.+ (str.to.re "I"))) (re.++ (re.union (re.* (str.to.re "JJJ")) (re.* (str.to.re "K"))) (re.++ (re.union (re.union (str.to.re "L") (str.to.re "MMM")) (re.union (str.to.re "NNN") (str.to.re "O"))) (re.++ (re.union (re.+ (str.to.re "P")) (re.+ (str.to.re "QQQ"))) (re.++ (re.+ (re.union (str.to.re "RR") (str.to.re "SSS"))) (re.++ (re.union (re.* (str.to.re "T")) (re.* (str.to.re "U"))) (re.++ (re.* (re.* (str.to.re "V"))) (re.++ (re.union (re.+ (str.to.re "WW")) (re.+ (str.to.re "XXX"))) (re.++ (re.union (re.* (str.to.re "YYY")) (re.* (str.to.re "ZZZ"))) (re.++ (re.* (re.* (str.to.re "!"))) (re.++ (re.union (re.union (str.to.re """") (str.to.re "##")) (re.union (str.to.re "$$") (str.to.re "%%%"))) (re.++ (re.+ (re.union (str.to.re "&") (str.to.re "''"))) (re.++ (re.* (re.union (str.to.re "(((") (str.to.re "))"))) (re.++ (re.+ (re.+ (str.to.re "***"))) (re.++ (re.+ (re.+ (str.to.re "+++"))) (re.++ (re.+ (re.+ (str.to.re ","))) (re.++ (re.union (re.union (str.to.re "--") (str.to.re "..")) (re.union (str.to.re "/") (str.to.re ":::"))) (re.++ (re.+ (re.* (str.to.re ";;"))) (re.++ (re.+ (re.+ (str.to.re "<"))) (re.++ (re.+ (re.* (str.to.re "=="))) (re.++ (re.union (re.+ (str.to.re ">>>")) (re.+ (str.to.re "??"))) (re.++ (re.+ (re.+ (str.to.re "@@"))) (re.++ (re.union (re.* (str.to.re "[[[")) (re.* (str.to.re "\\"))) (re.++ (re.* (re.+ (str.to.re "]]"))) (re.++ (re.union (re.union (str.to.re "^^") (str.to.re "__")) (re.union (str.to.re "``") (str.to.re "{{"))) (re.++ (re.* (re.+ (str.to.re "|"))) (re.++ (re.+ (re.* (str.to.re "}}}"))) (re.++ (re.* (re.* (str.to.re "~~"))) (re.++ (re.+ (re.union (str.to.re "0") (str.to.re "11"))) (re.++ (re.+ (re.* (str.to.re "2"))) (re.++ (re.+ (re.* (str.to.re "333"))) (re.++ (re.+ (re.+ (str.to.re "444"))) (re.++ (re.* (re.+ (str.to.re "555"))) (re.++ (re.union (re.union (str.to.re "66") (str.to.re "777")) (re.union (str.to.re "8") (str.to.re "999"))) (re.++ (re.union (re.* (str.to.re "aaa")) (re.* (str.to.re "bb"))) (re.++ (re.union (re.+ (str.to.re "cc")) (re.+ (str.to.re "dd"))) (re.++ (re.union (re.+ (str.to.re "e")) (re.+ (str.to.re "f"))) (re.++ (re.+ (re.* (str.to.re "ggg"))) (re.++ (re.* (re.+ (str.to.re "hh"))) (re.++ (re.* (re.* (str.to.re "iii"))) (re.++ (re.* (re.union (str.to.re "j") (str.to.re "kk"))) (re.++ (re.+ (re.* (str.to.re "lll"))) (re.++ (re.+ (re.union (str.to.re "mm") (str.to.re "nn"))) (re.++ (re.union (re.union (str.to.re "ooo") (str.to.re "ppp")) (re.union (str.to.re "q") (str.to.re "rr"))) (re.++ (re.* (re.union (str.to.re "ss") (str.to.re "ttt"))) (re.++ (re.union (re.* (str.to.re "uuu")) (re.* (str.to.re "v"))) (re.++ (re.* (re.union (str.to.re "www") (str.to.re "xxx"))) (re.++ (re.+ (re.+ (str.to.re "yy"))) (re.++ (re.+ (re.+ (str.to.re "zz"))) (re.++ (re.union (re.union (str.to.re "A") (str.to.re "BB")) (re.union (str.to.re "CCC") (str.to.re "DD"))) (re.++ (re.* (re.union (str.to.re "E") (str.to.re "FF"))) (re.++ (re.union (re.+ (str.to.re "GGG")) (re.+ (str.to.re "HHH"))) (re.++ (re.union (re.* (str.to.re "III")) (re.* (str.to.re "J"))) (re.++ (re.union (re.union (str.to.re "KKK") (str.to.re "LL")) (re.union (str.to.re "MMM") (str.to.re "NNN"))) (re.++ (re.* (re.+ (str.to.re "O"))) (re.++ (re.* (re.+ (str.to.re "PPP"))) (re.++ (re.union (re.union (str.to.re "QQ") (str.to.re "RR")) (re.union (str.to.re "SS") (str.to.re "TTT"))) (re.++ (re.* (re.* (str.to.re "U"))) (re.++ (re.union (re.union (str.to.re "V") (str.to.re "WW")) (re.union (str.to.re "XX") (str.to.re "Y"))) (re.++ (re.* (re.* (str.to.re "Z"))) (re.++ (re.+ (re.+ (str.to.re "!!!"))) (re.++ (re.union (re.* (str.to.re """")) (re.* (str.to.re "##"))) (re.++ (re.* (re.* (str.to.re "$"))) (re.++ (re.union (re.+ (str.to.re "%%%")) (re.+ (str.to.re "&&&"))) (re.++ (re.* (re.* (str.to.re "''"))) (re.++ (re.+ (re.* (str.to.re "(("))) (re.++ (re.union (re.* (str.to.re "))")) (re.* (str.to.re "**"))) (re.++ (re.* (re.union (str.to.re "+") (str.to.re ",,"))) (re.++ (re.+ (re.union (str.to.re "---") (str.to.re ".."))) (re.++ (re.* (re.* (str.to.re "///"))) (re.++ (re.+ (re.* (str.to.re ":::"))) (re.++ (re.* (re.* (str.to.re ";;;"))) (re.++ (re.* (re.* (str.to.re "<<"))) (re.++ (re.union (re.* (str.to.re "===")) (re.* (str.to.re ">>>"))) (re.++ (re.union (re.* (str.to.re "???")) (re.* (str.to.re "@"))) (re.++ (re.* (re.* (str.to.re "[[["))) (re.++ (re.* (re.+ (str.to.re "\\\\"))) (re.++ (re.union (re.+ (str.to.re "]]]")) (re.+ (str.to.re "^^^"))) (re.++ (re.union (re.+ (str.to.re "__")) (re.+ (str.to.re "``"))) (re.++ (re.+ (re.+ (str.to.re "{{{"))) (re.++ (re.union (re.union (str.to.re "|||") (str.to.re "}")) (re.union (str.to.re "~~~") (str.to.re "00"))) (re.++ (re.+ (re.+ (str.to.re "1"))) (re.++ (re.union (re.union (str.to.re "2") (str.to.re "33")) (re.union (str.to.re "44") (str.to.re "555"))) (re.++ (re.union (re.+ (str.to.re "66")) (re.+ (str.to.re "7"))) (re.++ (re.+ (re.* (str.to.re "88"))) (re.++ (re.union (re.* (str.to.re "99")) (re.* (str.to.re "a"))) (re.++ (re.+ (re.union (str.to.re "b") (str.to.re "c"))) (re.++ (re.* (re.+ (str.to.re "ddd"))) (re.++ (re.union (re.* (str.to.re "eee")) (re.* (str.to.re "f"))) (re.++ (re.+ (re.* (str.to.re "g"))) (re.++ (re.+ (re.union (str.to.re "h") (str.to.re "i"))) (re.++ (re.+ (re.+ (str.to.re "jjj"))) (re.++ (re.* (re.* (str.to.re "k"))) (re.++ (re.union (re.+ (str.to.re "lll")) (re.+ (str.to.re "mmm"))) (re.++ (re.* (re.* (str.to.re "nnn"))) (re.++ (re.* (re.* (str.to.re "ooo"))) (re.++ (re.union (re.union (str.to.re "ppp") (str.to.re "q")) (re.union (str.to.re "r") (str.to.re "s"))) (re.++ (re.+ (re.* (str.to.re "t"))) (re.++ (re.union (re.* (str.to.re "uuu")) (re.* (str.to.re "vv"))) (re.++ (re.* (re.+ (str.to.re "ww"))) (re.++ (re.* (re.+ (str.to.re "xxx"))) (re.++ (re.* (re.* (str.to.re "y"))) (re.++ (re.+ (re.union (str.to.re "z") (str.to.re "AA"))) (re.++ (re.union (re.union (str.to.re "BBB") (str.to.re "CC")) (re.union (str.to.re "DD") (str.to.re "E"))) (re.++ (re.+ (re.+ (str.to.re "F"))) (re.++ (re.union (re.union (str.to.re "GGG") (str.to.re "HH")) (re.union (str.to.re "III") (str.to.re "JJJ"))) (re.++ (re.* (re.+ (str.to.re "K"))) (re.++ (re.+ (re.union (str.to.re "LLL") (str.to.re "M"))) (re.++ (re.union (re.* (str.to.re "NNN")) (re.* (str.to.re "O"))) (re.++ (re.+ (re.union (str.to.re "PP") (str.to.re "QQ"))) (re.++ (re.* (re.* (str.to.re "RRR"))) (re.++ (re.* (re.* (str.to.re "SS"))) (re.++ (re.* (re.+ (str.to.re "TT"))) (re.++ (re.+ (re.* (str.to.re "UUU"))) (re.++ (re.+ (re.* (str.to.re "VVV"))) (re.++ (re.* (re.+ (str.to.re "WW"))) (re.++ (re.union (re.union (str.to.re "XXX") (str.to.re "YY")) (re.union (str.to.re "ZZZ") (str.to.re "!!!"))) (re.++ (re.* (re.union (str.to.re """""") (str.to.re "#"))) (re.++ (re.union (re.union (str.to.re "$$$") (str.to.re "%%")) (re.union (str.to.re "&&&") (str.to.re "'"))) (re.++ (re.union (re.union (str.to.re "(") (str.to.re ")")) (re.union (str.to.re "***") (str.to.re "+"))) (re.++ (re.* (re.* (str.to.re ",,"))) (re.++ (re.* (re.union (str.to.re "--") (str.to.re "..."))) (re.++ (re.* (re.+ (str.to.re "//"))) (re.++ (re.union (re.+ (str.to.re ":")) (re.+ (str.to.re ";"))) (re.++ (re.+ (re.+ (str.to.re "<<"))) (re.++ (re.* (re.* (str.to.re "==="))) (re.++ (re.+ (re.* (str.to.re ">"))) (re.++ (re.+ (re.union (str.to.re "?") (str.to.re "@@@"))) (re.++ (re.+ (re.union (str.to.re "[[") (str.to.re "\\"))) (re.++ (re.+ (re.union (str.to.re "]") (str.to.re "^"))) (re.++ (re.+ (re.+ (str.to.re "_"))) (re.++ (re.* (re.union (str.to.re "``") (str.to.re "{{"))) (re.* (re.* (str.to.re "|"))))))))))))))))))))))))))))))))))))))))))))))))))))))))))))))))))))))))))))))))))))))))))))))))))))))))))))))))))))))))))))))))))))))))))))))))))))))))))))))))))))))
(check-sat)